1 5 30
2996
  2.7   0.3  15.5 13243.2   0.0
  0.2 15891.9  65.5
  0.3 26437.0 109.0
  0.2 19961.0  82.3
  0.2 18658.6  77.0
  0.3 23180.2  95.6
 1287
 1172
  887
 1477
 1435
  595
 1330
 1436
  825
 1135
 1375
  853
 1185
  937
 1448
 1044
 1133
 1228
  992
 1211
 1414
  758
  769
  879
 1004
 1487
 1297
  799
 1269
  628
